<?xml version = "1.0" encoding="UTF-8" standalone="yes"?>
<CPLEXSolution version="1.2">
 <header
   problemName="../models/dfmodel1/npu/ilp/subgraphs-subgraph-2.lp"
   solutionName="incumbent"
   solutionIndex="-1"
   objectiveValue="0.70605400000010832"
   solutionTypeValue="3"
   solutionTypeString="primal"
   solutionStatusValue="101"
   solutionStatusString="integer optimal solution"
   solutionMethodString="mip"
   primalFeasible="1"
   dualFeasible="1"
   MIPNodes="0"
   MIPIterations="151"
   writeLevel="1"/>
 <quality
   epInt="1.0000000000000001e-05"
   epRHS="9.9999999999999995e-07"
   maxIntInfeas="0"
   maxPrimalInfeas="0"
   maxX="1000.4411270000002"
   maxSlack="3900.4411270000001"/>
 <linearConstraints>
  <constraint name="c1" index="0" slack="-0.70605400000010832"/>
  <constraint name="c2" index="1" slack="-1000.2033630000002"/>
  <constraint name="c3" index="2" slack="-1000.7060540000001"/>
  <constraint name="c4" index="3" slack="0"/>
  <constraint name="c5" index="4" slack="-1000.7060540000001"/>
  <constraint name="c6" index="5" slack="-0.15234200000008968"/>
  <constraint name="c7" index="6" slack="-0.70605400000010832"/>
  <constraint name="c8" index="7" slack="-900.41784600000005"/>
  <constraint name="c9" index="8" slack="-0.70605400000010832"/>
  <constraint name="c10" index="9" slack="0"/>
  <constraint name="c11" index="10" slack="-1000.7060540000001"/>
  <constraint name="c12" index="11" slack="-0.45290300000010575"/>
  <constraint name="c13" index="12" slack="-0.70605400000010832"/>
  <constraint name="c14" index="13" slack="-900.70605400000011"/>
  <constraint name="c15" index="14" slack="-1000.7060540000001"/>
  <constraint name="c16" index="15" slack="-0.65912100000014107"/>
  <constraint name="c17" index="16" slack="-0.70605400000010832"/>
  <constraint name="c18" index="17" slack="-900.45290300000011"/>
  <constraint name="c19" index="18" slack="-1000.7060540000001"/>
  <constraint name="c20" index="19" slack="-0.41784600000005412"/>
  <constraint name="c21" index="20" slack="-0.70605400000010832"/>
  <constraint name="c22" index="21" slack="-900.51615700000013"/>
  <constraint name="c23" index="22" slack="-1000.7060540000001"/>
  <constraint name="c24" index="23" slack="-0.47252800000012485"/>
  <constraint name="c25" index="24" slack="-1000.7060540000001"/>
  <constraint name="c26" index="25" slack="-0.45290300000010575"/>
  <constraint name="c27" index="26" slack="-0.70605400000010832"/>
  <constraint name="c28" index="27" slack="-1000.4751710000002"/>
  <constraint name="c29" index="28" slack="-0.70605400000010832"/>
  <constraint name="c30" index="29" slack="-900.70605400000011"/>
  <constraint name="c31" index="30" slack="-1000.7060540000001"/>
  <constraint name="c32" index="31" slack="-0.51615700000013476"/>
  <constraint name="c33" index="32" slack="0"/>
  <constraint name="c34" index="33" slack="0"/>
  <constraint name="c35" index="34" slack="0"/>
  <constraint name="c36" index="35" slack="0"/>
  <constraint name="c37" index="36" slack="0"/>
  <constraint name="c38" index="37" slack="0"/>
  <constraint name="c39" index="38" slack="0"/>
  <constraint name="c40" index="39" slack="0"/>
  <constraint name="c41" index="40" slack="-999"/>
  <constraint name="c42" index="41" slack="0"/>
  <constraint name="c43" index="42" slack="-2999.4932209999997"/>
  <constraint name="c44" index="43" slack="-999"/>
  <constraint name="c45" index="44" slack="0"/>
  <constraint name="c46" index="45" slack="-2900"/>
  <constraint name="c47" index="46" slack="-998"/>
  <constraint name="c48" index="47" slack="-1"/>
  <constraint name="c49" index="48" slack="-1999.3408789999999"/>
  <constraint name="c50" index="49" slack="0"/>
  <constraint name="c51" index="50" slack="-999"/>
  <constraint name="c52" index="51" slack="-0.03505700000005163"/>
  <constraint name="c53" index="52" slack="-900.04693299999997"/>
  <constraint name="c54" index="53" slack="0"/>
  <constraint name="c55" index="54" slack="-900.28820800000005"/>
  <constraint name="c56" index="55" slack="-0.24127500000008695"/>
  <constraint name="c57" index="56" slack="-998"/>
  <constraint name="c58" index="57" slack="-1"/>
  <constraint name="c59" index="58" slack="-2899.7937819999997"/>
  <constraint name="c60" index="59" slack="0"/>
  <constraint name="c61" index="60" slack="-999"/>
  <constraint name="c62" index="61" slack="0"/>
  <constraint name="c63" index="62" slack="-998"/>
  <constraint name="c64" index="63" slack="-1"/>
  <constraint name="c65" index="64" slack="-2899.8570359999999"/>
  <constraint name="c66" index="65" slack="0"/>
  <constraint name="c67" index="66" slack="-999"/>
  <constraint name="c68" index="67" slack="-0.05468200000007073"/>
  <constraint name="c69" index="68" slack="-999"/>
  <constraint name="c70" index="69" slack="0"/>
  <constraint name="c71" index="70" slack="-1999.7937820000002"/>
  <constraint name="c72" index="71" slack="-999"/>
  <constraint name="c73" index="72" slack="0"/>
  <constraint name="c74" index="73" slack="-3000.0573249999998"/>
  <constraint name="c75" index="74" slack="-998"/>
  <constraint name="c76" index="75" slack="-1"/>
  <constraint name="c77" index="76" slack="-2900.0469330000001"/>
  <constraint name="c78" index="77" slack="0"/>
  <constraint name="c79" index="78" slack="-999"/>
  <constraint name="c80" index="79" slack="-0.098311000000080639"/>
  <constraint name="c81" index="80" slack="-999"/>
  <constraint name="c82" index="81" slack="0"/>
  <constraint name="c83" index="82" slack="-1999.785517"/>
  <constraint name="c84" index="83" slack="-999"/>
  <constraint name="c85" index="84" slack="0"/>
  <constraint name="c86" index="85" slack="-1999.5821539999999"/>
  <constraint name="c87" index="86" slack="-999"/>
  <constraint name="c88" index="87" slack="0"/>
  <constraint name="c89" index="88" slack="-1999.5821539999999"/>
  <constraint name="c90" index="89" slack="-999"/>
  <constraint name="c91" index="90" slack="0"/>
  <constraint name="c92" index="91" slack="-3000.0350570000001"/>
  <constraint name="c93" index="92" slack="-999"/>
  <constraint name="c94" index="93" slack="0"/>
  <constraint name="c95" index="94" slack="-2900.2882079999999"/>
  <constraint name="c96" index="95" slack="-999"/>
  <constraint name="c97" index="96" slack="0"/>
  <constraint name="c98" index="97" slack="-3000.2412749999999"/>
  <constraint name="c99" index="98" slack="-900.03505700000005"/>
  <constraint name="c100" index="99" slack="0"/>
  <constraint name="c101" index="100" slack="-900.03505700000005"/>
  <constraint name="c102" index="101" slack="0"/>
  <constraint name="c103" index="102" slack="-999"/>
  <constraint name="c104" index="103" slack="0"/>
  <constraint name="c105" index="104" slack="-2900.0983109999997"/>
  <constraint name="c106" index="105" slack="-999"/>
  <constraint name="c107" index="106" slack="0"/>
  <constraint name="c108" index="107" slack="-3000.054682"/>
  <constraint name="c109" index="108" slack="-999"/>
  <constraint name="c110" index="109" slack="0"/>
  <constraint name="c111" index="110" slack="-2900.2882079999999"/>
  <constraint name="c112" index="111" slack="-999"/>
  <constraint name="c113" index="112" slack="0"/>
  <constraint name="c114" index="113" slack="-3000.0983110000002"/>
  <constraint name="c115" index="114" slack="-998"/>
  <constraint name="c116" index="115" slack="-1"/>
  <constraint name="c117" index="116" slack="-2999.9384360000004"/>
  <constraint name="c118" index="117" slack="0"/>
  <constraint name="c119" index="118" slack="-999"/>
  <constraint name="c120" index="119" slack="-999.52747199999988"/>
  <constraint name="c121" index="120" slack="-999"/>
  <constraint name="c122" index="121" slack="0"/>
  <constraint name="c123" index="122" slack="-2999.8874150000001"/>
  <constraint name="c124" index="123" slack="-999"/>
  <constraint name="c125" index="124" slack="0"/>
  <constraint name="c126" index="125" slack="-1899.945318"/>
  <constraint name="c127" index="126" slack="-998"/>
  <constraint name="c128" index="127" slack="-1"/>
  <constraint name="c129" index="128" slack="-3900.4411270000001"/>
  <constraint name="c130" index="129" slack="0"/>
  <constraint name="c131" index="130" slack="-999"/>
  <constraint name="c132" index="131" slack="-0.18659300000001622"/>
  <constraint name="c133" index="132" slack="-998"/>
  <constraint name="c134" index="133" slack="-1"/>
  <constraint name="c135" index="134" slack="-3900.1879760000002"/>
  <constraint name="c136" index="135" slack="0"/>
  <constraint name="c137" index="136" slack="-999"/>
  <constraint name="c138" index="137" slack="-999.94531799999993"/>
  <constraint name="c139" index="138" slack="-1900.2512300000003"/>
  <constraint name="c140" index="139" slack="-1000.2076010000002"/>
  <constraint name="c141" index="140" slack="-900.04362900000001"/>
  <constraint name="c142" index="141" slack="0"/>
  <constraint name="c143" index="142" slack="-999"/>
  <constraint name="c144" index="143" slack="0"/>
  <constraint name="c145" index="144" slack="-3000.1879760000002"/>
  <constraint name="c146" index="145" slack="-999"/>
  <constraint name="c147" index="146" slack="0"/>
  <constraint name="c148" index="147" slack="-3000.0026429999998"/>
  <constraint name="c149" index="148" slack="-999"/>
  <constraint name="c150" index="149" slack="0"/>
  <constraint name="c151" index="150" slack="-1999.4462880000001"/>
  <constraint name="c152" index="151" slack="-999"/>
  <constraint name="c153" index="152" slack="0"/>
  <constraint name="c154" index="153" slack="-1899.7117920000001"/>
  <constraint name="c155" index="154" slack="-998"/>
  <constraint name="c156" index="155" slack="-1"/>
  <constraint name="c157" index="156" slack="-999.29394599999989"/>
  <constraint name="c158" index="157" slack="0"/>
  <constraint name="c159" index="158" slack="-999"/>
  <constraint name="c160" index="159" slack="-999.746849"/>
  <constraint name="c161" index="160" slack="-998"/>
  <constraint name="c162" index="161" slack="-1"/>
  <constraint name="c163" index="162" slack="-2899.7468490000001"/>
  <constraint name="c164" index="163" slack="0"/>
  <constraint name="c165" index="164" slack="-999"/>
  <constraint name="c166" index="165" slack="-999.71179199999995"/>
  <constraint name="c167" index="166" slack="-998"/>
  <constraint name="c168" index="167" slack="-1"/>
  <constraint name="c169" index="168" slack="-2899.8101029999998"/>
  <constraint name="c170" index="169" slack="0"/>
  <constraint name="c171" index="170" slack="-999"/>
  <constraint name="c172" index="171" slack="-999.76647400000002"/>
  <constraint name="c173" index="172" slack="-999"/>
  <constraint name="c174" index="173" slack="0"/>
  <constraint name="c175" index="174" slack="-1999.7468490000001"/>
  <constraint name="c176" index="175" slack="-999"/>
  <constraint name="c177" index="176" slack="0"/>
  <constraint name="c178" index="177" slack="-2999.7691169999998"/>
  <constraint name="c179" index="178" slack="-998"/>
  <constraint name="c180" index="179" slack="-1"/>
  <constraint name="c181" index="180" slack="-2900"/>
  <constraint name="c182" index="181" slack="0"/>
  <constraint name="c183" index="182" slack="-999"/>
  <constraint name="c184" index="183" slack="-999.81010300000003"/>
  <constraint name="c185" index="184" slack="-998"/>
  <constraint name="c186" index="185" slack="-1"/>
  <constraint name="c187" index="186" slack="-1999.75046"/>
  <constraint name="c188" index="187" slack="0"/>
  <constraint name="c189" index="188" slack="-999"/>
  <constraint name="c190" index="189" slack="-999.54709699999989"/>
  <constraint name="c191" index="190" slack="-998"/>
  <constraint name="c192" index="191" slack="-1"/>
  <constraint name="c193" index="192" slack="-999.54709699999989"/>
  <constraint name="c194" index="193" slack="0"/>
  <constraint name="c195" index="194" slack="-999"/>
  <constraint name="c196" index="195" slack="-3.4694469519536142e-18"/>
  <constraint name="c197" index="196" slack="-998"/>
  <constraint name="c198" index="197" slack="-1"/>
  <constraint name="c199" index="198" slack="-1900.2531509999999"/>
  <constraint name="c200" index="199" slack="0"/>
  <constraint name="c201" index="200" slack="-999"/>
  <constraint name="c202" index="201" slack="-0.20621800000000257"/>
  <constraint name="c203" index="202" slack="-998"/>
  <constraint name="c204" index="203" slack="-1"/>
  <constraint name="c205" index="204" slack="-2900.0632539999997"/>
  <constraint name="c206" index="205" slack="0"/>
  <constraint name="c207" index="206" slack="-999"/>
  <constraint name="c208" index="207" slack="-0.019625000000019099"/>
  <constraint name="c209" index="208" slack="0"/>
  <constraint name="c210" index="209" slack="-1000.0222680000001"/>
  <constraint name="c211" index="210" slack="0"/>
  <constraint name="c212" index="211" slack="-1000.0222680000001"/>
  <constraint name="c213" index="212" slack="-998"/>
  <constraint name="c214" index="213" slack="-1"/>
  <constraint name="c215" index="214" slack="-2900.2531509999999"/>
  <constraint name="c216" index="215" slack="0"/>
  <constraint name="c217" index="216" slack="-999"/>
  <constraint name="c218" index="217" slack="-0.063254000000029009"/>
  <constraint name="c219" index="218" slack="-998"/>
  <constraint name="c220" index="219" slack="-1"/>
  <constraint name="c221" index="220" slack="-1999.6872060000001"/>
  <constraint name="c222" index="221" slack="0"/>
  <constraint name="c223" index="222" slack="-999"/>
  <constraint name="c224" index="223" slack="-999.48384299999987"/>
  <constraint name="c225" index="224" slack="-999"/>
  <constraint name="c226" index="225" slack="0"/>
  <constraint name="c227" index="226" slack="-1999.6361850000001"/>
  <constraint name="c228" index="227" slack="-999"/>
  <constraint name="c229" index="228" slack="0"/>
  <constraint name="c230" index="229" slack="-1899.901689"/>
  <constraint name="c231" index="230" slack="-998"/>
  <constraint name="c232" index="231" slack="-1"/>
  <constraint name="c233" index="232" slack="-1900.189897"/>
  <constraint name="c234" index="233" slack="0"/>
  <constraint name="c235" index="234" slack="-999"/>
  <constraint name="c236" index="235" slack="-0.14296399999999265"/>
  <constraint name="c237" index="236" slack="-998"/>
  <constraint name="c238" index="237" slack="-1"/>
  <constraint name="c239" index="238" slack="-1899.9367460000001"/>
  <constraint name="c240" index="239" slack="0"/>
  <constraint name="c241" index="240" slack="-999"/>
  <constraint name="c242" index="241" slack="-999.90168899999992"/>
  <constraint name="c243" index="242" slack="-999"/>
  <constraint name="c244" index="243" slack="0"/>
  <constraint name="c245" index="244" slack="-1999.9367459999999"/>
  <constraint name="c246" index="245" slack="-999"/>
  <constraint name="c247" index="246" slack="0"/>
  <constraint name="c248" index="247" slack="-2999.959014"/>
  <constraint name="c249" index="248" slack="-900.18989699999997"/>
  <constraint name="c250" index="249" slack="0"/>
  <constraint name="c251" index="250" slack="-900.18989699999997"/>
  <constraint name="c252" index="251" slack="0"/>
  <constraint name="c253" index="252" slack="-999"/>
  <constraint name="c254" index="253" slack="0"/>
  <constraint name="c255" index="254" slack="-2999.4973089999999"/>
  <constraint name="c256" index="255" slack="-999"/>
  <constraint name="c257" index="256" slack="0"/>
  <constraint name="c258" index="257" slack="-1999.293946"/>
  <constraint name="c259" index="258" slack="-999"/>
  <constraint name="c260" index="259" slack="0"/>
  <constraint name="c261" index="260" slack="-1999.293946"/>
  <constraint name="c262" index="261" slack="-999"/>
  <constraint name="c263" index="262" slack="0"/>
  <constraint name="c264" index="263" slack="-1999.7468490000001"/>
  <constraint name="c265" index="264" slack="-999"/>
  <constraint name="c266" index="265" slack="0"/>
  <constraint name="c267" index="266" slack="-2900"/>
  <constraint name="c268" index="267" slack="-999"/>
  <constraint name="c269" index="268" slack="0"/>
  <constraint name="c270" index="269" slack="-1999.9530669999999"/>
  <constraint name="c271" index="270" slack="-999"/>
  <constraint name="c272" index="271" slack="0"/>
  <constraint name="c273" index="272" slack="-2899.8101029999998"/>
  <constraint name="c274" index="273" slack="-999"/>
  <constraint name="c275" index="274" slack="0"/>
  <constraint name="c276" index="275" slack="-1999.766474"/>
  <constraint name="c277" index="276" slack="-999"/>
  <constraint name="c278" index="277" slack="0"/>
  <constraint name="c279" index="278" slack="-2900"/>
  <constraint name="c280" index="279" slack="-999"/>
  <constraint name="c281" index="280" slack="0"/>
  <constraint name="c282" index="281" slack="-2999.8101029999998"/>
  <constraint name="c283" index="282" slack="-998"/>
  <constraint name="c284" index="283" slack="-1"/>
  <constraint name="c285" index="284" slack="-1999.4973089999999"/>
  <constraint name="c286" index="285" slack="0"/>
  <constraint name="c287" index="286" slack="-999"/>
  <constraint name="c288" index="287" slack="-999.43127499999991"/>
  <constraint name="c289" index="288" slack="-999"/>
  <constraint name="c290" index="289" slack="0"/>
  <constraint name="c291" index="290" slack="-1999.4462880000001"/>
  <constraint name="c292" index="291" slack="-999"/>
  <constraint name="c293" index="292" slack="0"/>
  <constraint name="c294" index="293" slack="-1899.849121"/>
  <constraint name="c295" index="294" slack="-998"/>
  <constraint name="c296" index="295" slack="-1"/>
  <constraint name="c297" index="296" slack="-1900"/>
  <constraint name="c298" index="297" slack="0"/>
  <constraint name="c299" index="298" slack="-999"/>
  <constraint name="c300" index="299" slack="-0.090396000000041554"/>
  <constraint name="c301" index="300" slack="-998"/>
  <constraint name="c302" index="301" slack="-1"/>
  <constraint name="c303" index="302" slack="-1899.7468490000001"/>
  <constraint name="c304" index="303" slack="0"/>
  <constraint name="c305" index="304" slack="-999"/>
  <constraint name="c306" index="305" slack="-999.84912099999997"/>
  <constraint name="c307" index="306" slack="-999"/>
  <constraint name="c308" index="307" slack="0"/>
  <constraint name="c309" index="308" slack="-1999.7468490000001"/>
  <constraint name="c310" index="309" slack="-999"/>
  <constraint name="c311" index="310" slack="0"/>
  <constraint name="c312" index="311" slack="-1999.9064460000002"/>
 </linearConstraints>
 <variables>
  <variable name="tt" index="0" value="0.70605400000010832"/>
  <variable name="s_1_1" index="1" value="0"/>
  <variable name="t_1_1" index="2" value="0.046932999999967251"/>
  <variable name="s_2_1" index="3" value="1"/>
  <variable name="t_2_1" index="4" value="0.2882080000000542"/>
  <variable name="s_1_2" index="5" value="1"/>
  <variable name="t_1_2" index="6" value="0.2882080000000542"/>
  <variable name="s_2_2" index="7" value="-0"/>
  <variable name="t_2_2" index="8" value="0.2882080000000542"/>
  <variable name="s_1_3" index="9" value="0"/>
  <variable name="t_1_3" index="10" value="1000.4411270000002"/>
  <variable name="s_2_3" index="11" value="1"/>
  <variable name="t_2_3" index="12" value="0.23352600000000256"/>
  <variable name="s_1_4" index="13" value="0"/>
  <variable name="t_1_4" index="14" value="0"/>
  <variable name="s_2_4" index="15" value="1"/>
  <variable name="t_2_4" index="16" value="0"/>
  <variable name="s_1_5" index="17" value="0"/>
  <variable name="t_1_5" index="18" value="0.25315100000000257"/>
  <variable name="s_2_5" index="19" value="1"/>
  <variable name="t_2_5" index="20" value="0.25315100000000257"/>
  <variable name="s_1_6" index="21" value="0"/>
  <variable name="t_1_6" index="22" value="0.18989699999999266"/>
  <variable name="s_2_6" index="23" value="1"/>
  <variable name="t_2_6" index="24" value="0.18989699999999266"/>
  <variable name="s_1_7" index="25" value="1"/>
  <variable name="t_1_7" index="26" value="0"/>
  <variable name="s_2_7" index="27" value="0"/>
  <variable name="t_2_7" index="28" value="0"/>
  <variable name="s_1_8" index="29" value="0"/>
  <variable name="t_1_8" index="30" value="0"/>
  <variable name="s_2_8" index="31" value="1"/>
  <variable name="t_2_8" index="32" value="0.13732900000004156"/>
  <variable name="r_1_1_2" index="33" value="1"/>
  <variable name="u_1_1_2" index="34" value="-0"/>
  <variable name="r_2_1_2" index="35" value="1"/>
  <variable name="u_2_1_2" index="36" value="-0"/>
  <variable name="r_1_1_3" index="37" value="1"/>
  <variable name="u_1_1_3" index="38" value="-0"/>
  <variable name="r_2_1_3" index="39" value="0"/>
  <variable name="u_2_1_3" index="40" value="1"/>
  <variable name="r_1_1_5" index="41" value="1"/>
  <variable name="u_1_1_5" index="42" value="-0"/>
  <variable name="r_2_1_5" index="43" value="0"/>
  <variable name="u_2_1_5" index="44" value="1"/>
  <variable name="r_1_1_6" index="45" value="1"/>
  <variable name="u_1_1_6" index="46" value="-0"/>
  <variable name="r_2_1_6" index="47" value="0"/>
  <variable name="u_2_1_6" index="48" value="1"/>
  <variable name="r_1_1_7" index="49" value="1"/>
  <variable name="u_1_1_7" index="50" value="1"/>
  <variable name="r_2_1_7" index="51" value="1"/>
  <variable name="u_2_1_7" index="52" value="-0"/>
  <variable name="r_1_1_8" index="53" value="1"/>
  <variable name="u_1_1_8" index="54" value="-0"/>
  <variable name="r_2_1_8" index="55" value="0"/>
  <variable name="u_2_1_8" index="56" value="1"/>
  <variable name="r_1_2_3" index="57" value="1"/>
  <variable name="u_1_2_3" index="58" value="-0"/>
  <variable name="r_2_2_3" index="59" value="1"/>
  <variable name="u_2_2_3" index="60" value="-0"/>
  <variable name="r_1_2_4" index="61" value="1"/>
  <variable name="u_1_2_4" index="62" value="-0"/>
  <variable name="r_2_2_4" index="63" value="1"/>
  <variable name="u_2_2_4" index="64" value="-0"/>
  <variable name="r_1_2_6" index="65" value="1"/>
  <variable name="u_1_2_6" index="66" value="-0"/>
  <variable name="r_2_2_6" index="67" value="1"/>
  <variable name="u_2_2_6" index="68" value="-0"/>
  <variable name="r_1_2_8" index="69" value="1"/>
  <variable name="u_1_2_8" index="70" value="-0"/>
  <variable name="r_2_2_8" index="71" value="1"/>
  <variable name="u_2_2_8" index="72" value="-0"/>
  <variable name="r_1_3_4" index="73" value="1"/>
  <variable name="u_1_3_4" index="74" value="-0"/>
  <variable name="r_2_3_4" index="75" value="0"/>
  <variable name="u_2_3_4" index="76" value="1"/>
  <variable name="r_1_3_5" index="77" value="1"/>
  <variable name="u_1_3_5" index="78" value="-0"/>
  <variable name="r_2_3_5" index="79" value="0"/>
  <variable name="u_2_3_5" index="80" value="-0"/>
  <variable name="r_1_3_7" index="81" value="1"/>
  <variable name="u_1_3_7" index="82" value="1"/>
  <variable name="r_2_3_7" index="83" value="1"/>
  <variable name="u_2_3_7" index="84" value="-0"/>
  <variable name="r_1_4_5" index="85" value="1"/>
  <variable name="u_1_4_5" index="86" value="-0"/>
  <variable name="r_2_4_5" index="87" value="0"/>
  <variable name="u_2_4_5" index="88" value="-0"/>
  <variable name="r_1_4_6" index="89" value="1"/>
  <variable name="u_1_4_6" index="90" value="-0"/>
  <variable name="r_2_4_6" index="91" value="0"/>
  <variable name="u_2_4_6" index="92" value="-0"/>
  <variable name="r_1_4_7" index="93" value="1"/>
  <variable name="u_1_4_7" index="94" value="1"/>
  <variable name="r_2_4_7" index="95" value="1"/>
  <variable name="u_2_4_7" index="96" value="-0"/>
  <variable name="r_1_4_8" index="97" value="1"/>
  <variable name="u_1_4_8" index="98" value="-0"/>
  <variable name="r_2_4_8" index="99" value="0"/>
  <variable name="u_2_4_8" index="100" value="-0"/>
  <variable name="r_1_5_6" index="101" value="1"/>
  <variable name="u_1_5_6" index="102" value="-0"/>
  <variable name="r_2_5_6" index="103" value="0"/>
  <variable name="u_2_5_6" index="104" value="1"/>
  <variable name="r_1_5_8" index="105" value="1"/>
  <variable name="u_1_5_8" index="106" value="-0"/>
  <variable name="r_2_5_8" index="107" value="0"/>
  <variable name="u_2_5_8" index="108" value="1"/>
  <variable name="r_1_6_7" index="109" value="1"/>
  <variable name="u_1_6_7" index="110" value="1"/>
  <variable name="r_2_6_7" index="111" value="1"/>
  <variable name="u_2_6_7" index="112" value="-0"/>
  <variable name="r_1_7_8" index="113" value="1"/>
  <variable name="u_1_7_8" index="114" value="-0"/>
  <variable name="r_2_7_8" index="115" value="1"/>
  <variable name="u_2_7_8" index="116" value="-0"/>
 </variables>
</CPLEXSolution>
